(set-info :status unsat)
(declare-datatypes ((T 0)) ((
  (f0)
  (f1 (proj0f1 T) (proj1f1 T) (proj2f1 T) (proj3f1 T)))))
(assert (exists ((y8884 T) (y8885 T) (y8886 T) (y8887 T) (y8881 T) (y8882 T) (y8883 T) (y8888 T) (y8889 T) (y8899 T) (y8898 T) (y8893 T) (y8892 T) (y8891 T) (y8890 T) (y8897 T) (y8896 T) (y8895 T) (y8894 T) (y8901 T) (y8900 T) (y8902 T)) 
  (or 
    (and (= y8881 (f1 y8882 (f1 (f1 PLACEHOLDER PLACEHOLDER PLACEHOLDER PLACEHOLDER) (f1 (f1 PLACEHOLDER PLACEHOLDER PLACEHOLDER PLACEHOLDER) (f1 PLACEHOLDER PLACEHOLDER PLACEHOLDER PLACEHOLDER) PLACEHOLDER (f1 PLACEHOLDER PLACEHOLDER PLACEHOLDER PLACEHOLDER)) (f1 PLACEHOLDER PLACEHOLDER PLACEHOLDER PLACEHOLDER) (f1 (f1 PLACEHOLDER PLACEHOLDER PLACEHOLDER PLACEHOLDER) (f1 PLACEHOLDER PLACEHOLDER PLACEHOLDER PLACEHOLDER) (f1 PLACEHOLDER PLACEHOLDER PLACEHOLDER PLACEHOLDER) (f1 PLACEHOLDER PLACEHOLDER PLACEHOLDER PLACEHOLDER))) (f1 PLACEHOLDER PLACEHOLDER PLACEHOLDER PLACEHOLDER) (f1 (f1 PLACEHOLDER PLACEHOLDER PLACEHOLDER (f1 PLACEHOLDER PLACEHOLDER PLACEHOLDER PLACEHOLDER)) PLACEHOLDER (f1 (f1 PLACEHOLDER PLACEHOLDER PLACEHOLDER PLACEHOLDER) (f1 PLACEHOLDER PLACEHOLDER PLACEHOLDER PLACEHOLDER) PLACEHOLDER (f1 PLACEHOLDER PLACEHOLDER PLACEHOLDER PLACEHOLDER)) (f1 (f1 PLACEHOLDER PLACEHOLDER PLACEHOLDER PLACEHOLDER) (f1 PLACEHOLDER PLACEHOLDER PLACEHOLDER PLACEHOLDER) PLACEHOLDER (f1 PLACEHOLDER PLACEHOLDER PLACEHOLDER PLACEHOLDER))))) (= y8882 (f1 y8883 (f1 PLACEHOLDER PLACEHOLDER PLACEHOLDER PLACEHOLDER) PLACEHOLDER PLACEHOLDER)) (= y8883 (f1 y8884 (f1 (f1 PLACEHOLDER PLACEHOLDER PLACEHOLDER PLACEHOLDER) (f1 PLACEHOLDER PLACEHOLDER PLACEHOLDER PLACEHOLDER) (f1 PLACEHOLDER PLACEHOLDER PLACEHOLDER PLACEHOLDER) PLACEHOLDER) (f1 PLACEHOLDER PLACEHOLDER PLACEHOLDER PLACEHOLDER) PLACEHOLDER)) (= y8884 (f1 (f1 y8881 PLACEHOLDER PLACEHOLDER PLACEHOLDER) PLACEHOLDER y8885 PLACEHOLDER)) (= y8885 (f1 y8881 PLACEHOLDER PLACEHOLDER PLACEHOLDER))) (= y8886 (f1 y8886 PLACEHOLDER PLACEHOLDER PLACEHOLDER)) 
    (and (= y8887 (f1 (f1 (f1 (f1 y8887 PLACEHOLDER PLACEHOLDER PLACEHOLDER) PLACEHOLDER (f1 PLACEHOLDER PLACEHOLDER PLACEHOLDER PLACEHOLDER) PLACEHOLDER) PLACEHOLDER (f1 (f1 PLACEHOLDER PLACEHOLDER PLACEHOLDER PLACEHOLDER) (f1 PLACEHOLDER PLACEHOLDER PLACEHOLDER PLACEHOLDER) (f1 PLACEHOLDER PLACEHOLDER PLACEHOLDER PLACEHOLDER) (f1 PLACEHOLDER PLACEHOLDER PLACEHOLDER PLACEHOLDER)) (f1 PLACEHOLDER PLACEHOLDER (f1 PLACEHOLDER PLACEHOLDER PLACEHOLDER PLACEHOLDER) PLACEHOLDER)) (f1 y8888 (f1 (f1 PLACEHOLDER PLACEHOLDER PLACEHOLDER PLACEHOLDER) PLACEHOLDER (f1 PLACEHOLDER PLACEHOLDER PLACEHOLDER PLACEHOLDER) (f1 PLACEHOLDER PLACEHOLDER PLACEHOLDER PLACEHOLDER)) (f1 PLACEHOLDER (f1 PLACEHOLDER PLACEHOLDER PLACEHOLDER PLACEHOLDER) (f1 PLACEHOLDER PLACEHOLDER PLACEHOLDER PLACEHOLDER) PLACEHOLDER) (f1 PLACEHOLDER PLACEHOLDER PLACEHOLDER PLACEHOLDER)) PLACEHOLDER (f1 (f1 (f1 PLACEHOLDER PLACEHOLDER PLACEHOLDER PLACEHOLDER) PLACEHOLDER (f1 PLACEHOLDER PLACEHOLDER PLACEHOLDER PLACEHOLDER) PLACEHOLDER) (f1 (f1 PLACEHOLDER PLACEHOLDER PLACEHOLDER PLACEHOLDER) (f1 PLACEHOLDER PLACEHOLDER PLACEHOLDER PLACEHOLDER) PLACEHOLDER (f1 PLACEHOLDER PLACEHOLDER PLACEHOLDER PLACEHOLDER)) PLACEHOLDER (f1 (f1 PLACEHOLDER PLACEHOLDER PLACEHOLDER PLACEHOLDER) (f1 PLACEHOLDER PLACEHOLDER PLACEHOLDER PLACEHOLDER) PLACEHOLDER (f1 PLACEHOLDER PLACEHOLDER PLACEHOLDER PLACEHOLDER))))) (= y8888 (f1 y8889 PLACEHOLDER PLACEHOLDER (f1 PLACEHOLDER PLACEHOLDER PLACEHOLDER PLACEHOLDER))) (= y8889 (f1 y8887 PLACEHOLDER PLACEHOLDER PLACEHOLDER))) (= y8890 (f1 (f1 (f1 (f1 (f1 y8890 PLACEHOLDER PLACEHOLDER PLACEHOLDER) (f1 PLACEHOLDER PLACEHOLDER PLACEHOLDER PLACEHOLDER) PLACEHOLDER PLACEHOLDER) (f1 PLACEHOLDER PLACEHOLDER PLACEHOLDER PLACEHOLDER) PLACEHOLDER (f1 PLACEHOLDER PLACEHOLDER PLACEHOLDER PLACEHOLDER)) (f1 PLACEHOLDER PLACEHOLDER PLACEHOLDER PLACEHOLDER) PLACEHOLDER (f1 (f1 PLACEHOLDER PLACEHOLDER PLACEHOLDER PLACEHOLDER) (f1 PLACEHOLDER PLACEHOLDER PLACEHOLDER PLACEHOLDER) (f1 PLACEHOLDER PLACEHOLDER PLACEHOLDER PLACEHOLDER) PLACEHOLDER)) (f1 PLACEHOLDER (f1 PLACEHOLDER PLACEHOLDER PLACEHOLDER PLACEHOLDER) (f1 PLACEHOLDER PLACEHOLDER PLACEHOLDER PLACEHOLDER) PLACEHOLDER) (f1 (f1 (f1 (f1 y8890 PLACEHOLDER PLACEHOLDER PLACEHOLDER) PLACEHOLDER PLACEHOLDER (f1 PLACEHOLDER PLACEHOLDER PLACEHOLDER PLACEHOLDER)) (f1 PLACEHOLDER PLACEHOLDER PLACEHOLDER PLACEHOLDER) PLACEHOLDER (f1 (f1 PLACEHOLDER PLACEHOLDER PLACEHOLDER PLACEHOLDER) PLACEHOLDER (f1 PLACEHOLDER PLACEHOLDER PLACEHOLDER PLACEHOLDER) PLACEHOLDER)) (f1 (f1 PLACEHOLDER PLACEHOLDER PLACEHOLDER PLACEHOLDER) (f1 PLACEHOLDER PLACEHOLDER PLACEHOLDER PLACEHOLDER) (f1 PLACEHOLDER PLACEHOLDER PLACEHOLDER PLACEHOLDER) (f1 PLACEHOLDER PLACEHOLDER PLACEHOLDER PLACEHOLDER)) (f1 PLACEHOLDER PLACEHOLDER PLACEHOLDER PLACEHOLDER) (f1 PLACEHOLDER PLACEHOLDER (f1 (f1 PLACEHOLDER PLACEHOLDER PLACEHOLDER PLACEHOLDER) PLACEHOLDER (f1 PLACEHOLDER PLACEHOLDER PLACEHOLDER PLACEHOLDER) (f1 PLACEHOLDER PLACEHOLDER PLACEHOLDER PLACEHOLDER)) (f1 PLACEHOLDER (f1 PLACEHOLDER PLACEHOLDER PLACEHOLDER PLACEHOLDER) (f1 PLACEHOLDER PLACEHOLDER PLACEHOLDER PLACEHOLDER) (f1 PLACEHOLDER PLACEHOLDER PLACEHOLDER PLACEHOLDER)))) (f1 PLACEHOLDER (f1 (f1 PLACEHOLDER PLACEHOLDER PLACEHOLDER PLACEHOLDER) (f1 PLACEHOLDER (f1 PLACEHOLDER PLACEHOLDER PLACEHOLDER PLACEHOLDER) PLACEHOLDER (f1 PLACEHOLDER PLACEHOLDER PLACEHOLDER PLACEHOLDER)) (f1 PLACEHOLDER PLACEHOLDER PLACEHOLDER PLACEHOLDER) PLACEHOLDER) (f1 PLACEHOLDER PLACEHOLDER PLACEHOLDER PLACEHOLDER) (f1 PLACEHOLDER PLACEHOLDER (f1 (f1 PLACEHOLDER PLACEHOLDER PLACEHOLDER PLACEHOLDER) PLACEHOLDER (f1 PLACEHOLDER PLACEHOLDER PLACEHOLDER PLACEHOLDER) PLACEHOLDER) (f1 (f1 PLACEHOLDER PLACEHOLDER PLACEHOLDER PLACEHOLDER) PLACEHOLDER PLACEHOLDER PLACEHOLDER))))) 
    (and (= y8891 (f1 y8892 (f1 PLACEHOLDER PLACEHOLDER (f1 PLACEHOLDER PLACEHOLDER PLACEHOLDER PLACEHOLDER) (f1 (f1 PLACEHOLDER PLACEHOLDER PLACEHOLDER PLACEHOLDER) (f1 PLACEHOLDER PLACEHOLDER PLACEHOLDER PLACEHOLDER) PLACEHOLDER (f1 PLACEHOLDER PLACEHOLDER PLACEHOLDER PLACEHOLDER))) PLACEHOLDER PLACEHOLDER)) (= y8892 (f1 y8893 PLACEHOLDER (f1 PLACEHOLDER PLACEHOLDER (f1 PLACEHOLDER PLACEHOLDER PLACEHOLDER PLACEHOLDER) PLACEHOLDER) (f1 PLACEHOLDER PLACEHOLDER PLACEHOLDER PLACEHOLDER))) (= y8893 (f1 y8894 (f1 PLACEHOLDER PLACEHOLDER PLACEHOLDER PLACEHOLDER) (f1 PLACEHOLDER PLACEHOLDER PLACEHOLDER PLACEHOLDER) PLACEHOLDER)) (= y8894 (f1 y8891 PLACEHOLDER PLACEHOLDER PLACEHOLDER))) 
    (and (= y8895 (f1 y8896 y8895 PLACEHOLDER (f1 (f1 PLACEHOLDER PLACEHOLDER PLACEHOLDER PLACEHOLDER) PLACEHOLDER PLACEHOLDER (f1 PLACEHOLDER PLACEHOLDER PLACEHOLDER PLACEHOLDER)))) (= y8896 (f1 y8897 (f1 PLACEHOLDER PLACEHOLDER PLACEHOLDER PLACEHOLDER) PLACEHOLDER (f1 PLACEHOLDER PLACEHOLDER PLACEHOLDER PLACEHOLDER))) (= y8897 (f1 y8895 PLACEHOLDER PLACEHOLDER PLACEHOLDER))) 
    (and (= y8898 (f1 y8899 (f1 PLACEHOLDER PLACEHOLDER PLACEHOLDER PLACEHOLDER) PLACEHOLDER (f1 (f1 (f1 PLACEHOLDER PLACEHOLDER PLACEHOLDER PLACEHOLDER) (f1 PLACEHOLDER PLACEHOLDER PLACEHOLDER PLACEHOLDER) (f1 PLACEHOLDER PLACEHOLDER PLACEHOLDER PLACEHOLDER) PLACEHOLDER) (f1 PLACEHOLDER PLACEHOLDER PLACEHOLDER PLACEHOLDER) PLACEHOLDER (f1 (f1 PLACEHOLDER PLACEHOLDER PLACEHOLDER PLACEHOLDER) (f1 PLACEHOLDER PLACEHOLDER PLACEHOLDER PLACEHOLDER) (f1 PLACEHOLDER PLACEHOLDER PLACEHOLDER PLACEHOLDER) (f1 PLACEHOLDER PLACEHOLDER PLACEHOLDER PLACEHOLDER))))) (= y8899 (f1 y8900 PLACEHOLDER PLACEHOLDER (f1 PLACEHOLDER (f1 PLACEHOLDER PLACEHOLDER PLACEHOLDER PLACEHOLDER) (f1 PLACEHOLDER PLACEHOLDER PLACEHOLDER PLACEHOLDER) PLACEHOLDER))) (= y8900 (f1 y8901 PLACEHOLDER PLACEHOLDER PLACEHOLDER)) (= y8901 (f1 y8898 PLACEHOLDER PLACEHOLDER PLACEHOLDER))) (= y8902 (f1 y8902 y8902 PLACEHOLDER PLACEHOLDER)))))
(check-sat)
